(set-logic QF_SLIA)
(declare-fun var0 () String)
(assert (str.in_re var0 (re.++ ((_ re.loop 5 687) (re.++ (re.union (str.to_re "PS") (re.union (str.to_re "a\u0022]") (re.union (str.to_re "B") (str.to_re "k")))) (re.++ (re.union (str.to_re "}]") (re.union (str.to_re "Fq") (re.union (str.to_re "u") (str.to_re "ki")))) (re.++ (re.union (str.to_re "{") (re.union (str.to_re "H8") (re.union (str.to_re "3~") (str.to_re "D7n")))) (re.union (str.to_re "i") (re.union (str.to_re "R_y") (re.union (str.to_re "0") (str.to_re "POa")))))))) (re.++ ((_ re.loop 9 296) (re.++ (re.union (str.to_re "I:") (re.union (str.to_re ",D") (re.union (str.to_re "O2") (str.to_re "eZ")))) (re.++ (re.union (str.to_re "x9") (re.union (str.to_re "Ja") (re.union (str.to_re "*y") (str.to_re "_%t")))) (re.++ (re.union (str.to_re "wN") (re.union (str.to_re "|") (re.union (str.to_re "/h") (str.to_re "\\(")))) (re.union (str.to_re "G") (re.union (str.to_re "ik6") (re.union (str.to_re "Gz") (str.to_re "nM4")))))))) (re.++ ((_ re.loop 11 150) (re.++ (re.union (str.to_re "a") (re.union (str.to_re "B7X") (re.union (str.to_re "oL") (str.to_re "(V")))) (re.++ (re.union (str.to_re "4)") (re.union (str.to_re ",.O") (re.union (str.to_re "pP") (str.to_re "I8p")))) (re.++ (re.union (str.to_re ";") (re.union (str.to_re "1XL") (re.union (str.to_re "R<") (str.to_re "k")))) (re.union (str.to_re "i\u0022") (re.union (str.to_re "~%)") (re.union (str.to_re "[D:") (str.to_re "7Rl")))))))) ((_ re.loop 13 962) (re.++ (re.union (str.to_re "i$") (re.union (str.to_re "*Cj") (re.union (str.to_re "*a4") (str.to_re "F")))) (re.++ (re.union (str.to_re "#.") (re.union (str.to_re "0\\") (re.union (str.to_re "iEn") (str.to_re "rR")))) (re.++ (re.union (str.to_re "!b=") (re.union (str.to_re "uj,") (re.union (str.to_re "[") (str.to_re "!")))) (re.union (str.to_re "C") (re.union (str.to_re "pb") (re.union (str.to_re "q") (str.to_re "J=")))))))))))))
(assert (not (str.in_re var0 (re.++ ((_ re.loop 7 919) (re.++ (re.union (str.to_re "Cl") (re.union (str.to_re "~") (re.union (str.to_re "Pw<") (str.to_re "gF}")))) (re.++ (re.union (str.to_re "}n") (re.union (str.to_re "K") (re.union (str.to_re "qv~") (str.to_re "{#")))) (re.++ (re.union (str.to_re "o]R") (re.union (str.to_re "}") (re.union (str.to_re "(z") (str.to_re "D.L")))) (re.union (str.to_re "=") (re.union (str.to_re "W") (re.union (str.to_re "\u0022") (str.to_re "[")))))))) (re.++ ((_ re.loop 5 724) (re.++ (re.union (str.to_re "5Q") (re.union (str.to_re "CV") (re.union (str.to_re "G3S") (str.to_re "ak")))) (re.++ (re.union (str.to_re "{") (re.union (str.to_re ",SR") (re.union (str.to_re "=(1") (str.to_re "w9Q")))) (re.++ (re.union (str.to_re "v") (re.union (str.to_re "Q#") (re.union (str.to_re "A") (str.to_re ";")))) (re.union (str.to_re "Y") (re.union (str.to_re "HZZ") (re.union (str.to_re "I") (str.to_re "(H")))))))) (re.++ ((_ re.loop 8 48) (re.++ (re.union (str.to_re "`") (re.union (str.to_re "'I") (re.union (str.to_re "j6E") (str.to_re "M\u0022")))) (re.++ (re.union (str.to_re "Tk") (re.union (str.to_re "?") (re.union (str.to_re "C") (str.to_re "y")))) (re.++ (re.union (str.to_re "DU") (re.union (str.to_re "&") (re.union (str.to_re "H") (str.to_re "Do-")))) (re.union (str.to_re "a`") (re.union (str.to_re "9&(") (re.union (str.to_re "7M") (str.to_re "S")))))))) ((_ re.loop 5 258) (re.++ (re.union (str.to_re "D+") (re.union (str.to_re "\u0022'") (re.union (str.to_re "WNj") (str.to_re ".-r")))) (re.++ (re.union (str.to_re "!") (re.union (str.to_re "?^_") (re.union (str.to_re "*,V") (str.to_re "\u0022.")))) (re.++ (re.union (str.to_re "B\u00221") (re.union (str.to_re ":") (re.union (str.to_re "{T'") (str.to_re "<")))) (re.union (str.to_re "i{3") (re.union (str.to_re "[") (re.union (str.to_re "JC#") (str.to_re "fv"))))))))))))))
(assert (not (str.in_re var0 (re.++ (re.* re.allchar) (re.++ (re.union (str.to_re "<") (re.union (str.to_re ">") (re.union (str.to_re "'") (re.union (str.to_re "\u0022") (str.to_re "&"))))) (re.* re.allchar))))))
(assert (<= 50 (str.len var0)))
(check-sat)
(get-model)
